# Data for pyomo

set c := c1 c2 c3 c4;

set h := h1 h2 h3 h4;

set j := j1 j2;

set m := 
m1 
m2 
m3 
m4 
m5 
m6
;

set p :=
p1
p2
p3
p4
p5
p6
p7
p8
p9
p10
p11
p12
p13
p14
p15
p16
p17
p18
p19
p20
p21
p22
p23
p24
p25
p26
p27
p28
p29
p30
p31
p32
p33
p34
p35
p36
p37
p38
p39
p40
p41
p42
p43
p44
p45
p46
p47
p48
p49
p50
p51
p52
p53
p54
p55
p56
p57
p58
p59
p60
p61
p62
p63
p64
p65
p66
p67
p68
p69
p70
p71
p72
p73
p74
p75
p76
p77
p78
p79
p80
p81
p82
p83
p84
p85
p86
p87
p88
p89
p90
p91
p92
p93
p94
p95
p96
p97
p98
p99
p100
p101
p102
p103
p104
p105
p106
p107
p108
p109
p110
p111
p112
p113
p114
p115
p116
p117
p118
p119
p120
p121
p122
p123
p124
p125
p126
p127
p128
p129
p130
p131
p132
p133
p134
p135
p136
p137
p138
p139
p140
p141
p142
p143
p144
p145
p146
p147
p148
p149
p150
p151
p152
p153
p154
p155
p156
p157
p158
p159
p160
p161
p162
p163
p164
p165
p166
p167
p168
p169
p170
p171
p172
p173
p174
p175
;

param CIM :=
m1 2216.13
m2 16621.00
m3 5540.33
m4 2216.13
m5 16621.00
m6 5540.33
;

param FCAP :=
m1 4
m2 31
m3 10
m4 4
m5 31
m6 10
;

param TT1 :=
j1 1
j2 2
;

param TT3 :=
j1 1
j2 2
;


param U1 :=
c1 m1 j1 1040
c1 m2 j1 2600
c1 m3 j1 2600
c1 m4 j1 2900
c1 m5 j1 3500
c1 m6 j1 3500
c2 m1 j1 2600
c2 m2 j1 200
c2 m3 j1 2600
c2 m4 j1 2900
c2 m5 j1 3500
c2 m6 j1 3500
c3 m1 j1 1840
c3 m2 j1 2000
c3 m3 j1 2900
c3 m4 j1 2900
c3 m5 j1 3500
c3 m6 j1 3500
c4 m1 j1 1640
c4 m2 j1 1820
c4 m3 j1 2900
c4 m4 j1 2900
c4 m5 j1 3500
c4 m6 j1 3500
c1 m1 j2 520
c1 m2 j2 520
c1 m3 j2 520
c1 m4 j2 936
c1 m5 j2 1053
c1 m6 j2 1053
c2 m1 j2 520
c2 m2 j2 100
c2 m3 j2 520
c2 m4 j2 936
c2 m5 j2 1053
c2 m6 j2 1053
c3 m1 j2 520
c3 m2 j2 520
c3 m3 j2 936
c3 m4 j2 936
c3 m5 j2 1053
c3 m6 j2 1053
c4 m1 j2 520
c4 m2 j2 520
c4 m3 j2 936
c4 m4 j2 936
c4 m5 j2 1053
c4 m6 j2 1053
;

param U3 :=
m1 h1 j1 1910
m1 h2 j1 1910
m1 h3 j1 2910
m1 h4 j1 1910
m2 h1 j1 2910
m2 h2 j1 400
m2 h3 j1 1910
m2 h4 j1 1910
m3 h1 j1 2910
m3 h2 j1 2910
m3 h3 j1 2910
m3 h4 j1 2910
m4 h1 j1 2910
m4 h2 j1 2910
m4 h3 j1 2910
m4 h4 j1 2910
m5 h1 j1 2910
m5 h2 j1 2910
m5 h3 j1 2910
m5 h4 j1 2910
m6 h1 j1 2910
m6 h2 j1 2910
m6 h3 j1 2910
m6 h4 j1 2910
m1 h1 j2 910
m1 h2 j2 910
m1 h3 j2 910
m1 h4 j2 910
m2 h1 j2 910
m2 h2 j2 300
m2 h3 j2 910
m2 h4 j2 910
m3 h1 j2 1755
m3 h2 j2 1755
m3 h3 j2 1755
m3 h4 j2 1755
m4 h1 j2 1755
m4 h2 j2 1755
m4 h3 j2 1755
m4 h4 j2 1755
m5 h1 j2 1855
m5 h2 j2 1855
m5 h3 j2 1855
m5 h4 j2 1755
m6 h1 j2 1855
m6 h2 j2 1855
m6 h3 j2 1855
m6 h4 j2 1855
;

param INC :=
p1 c3 61 1
p2 c3 66 1
p3 c1 39 1
p4 c1 61 1
p5 c1 1 1
p6 c3 23 1
p7 c4 36 1
p8 c1 63 1
p9 c1 34 1
p10 c1 75 1
p11 c1 10 1
p12 c3 4 1
p13 c2 57 1
p14 c4 65 1
p15 c2 30 1
p16 c1 72 1
p17 c1 46 1
p18 c4 81 1
p19 c3 27 1
p20 c1 50 1
p21 c1 89 1
p22 c4 87 1
p23 c1 52 1
p24 c4 37 1
p25 c1 62 1
p26 c1 19 1
p27 c4 33 1
p28 c2 74 1
p29 c3 2 1
p30 c4 23 1
p31 c3 22 1
p32 c3 36 1
p33 c2 30 1
p34 c3 27 1
p35 c2 9 1
p36 c1 19 1
p37 c3 39 1
p38 c1 14 1
p39 c2 75 1
p40 c3 34 1
p41 c1 37 1
p42 c2 15 1
p43 c3 22 1
p44 c1 28 1
p45 c3 53 1
p46 c2 61 1
p47 c2 55 1
p48 c3 14 1
p49 c3 39 1
p50 c1 55 1
p51 c1 34 1
p52 c2 50 1
p53 c4 18 1
p54 c1 65 1
p55 c2 54 1
p56 c4 38 1
p57 c1 61 1
p58 c1 20 1
p59 c1 41 1
p60 c1 58 1
p61 c3 1 1
p62 c4 89 1
p63 c2 22 1
p64 c1 52 1
p65 c2 24 1
p66 c1 3 1
p67 c2 1 1
p68 c4 7 1
p69 c2 25 1
p70 c4 9 1
p71 c3 40 1
p72 c3 84 1
p73 c1 70 1
p74 c2 29 1
p75 c3 44 1
p76 c4 29 1
p77 c2 82 1
p78 c2 55 1
p79 c2 68 1
p80 c4 89 1
p81 c3 17 1
p82 c3 66 1
p83 c4 31 1
p84 c2 43 1
p85 c4 16 1
p86 c1 67 1
p87 c4 46 1
p88 c3 9 1
p89 c4 68 1
p90 c1 44 1
p91 c2 65 1
p92 c2 86 1
p93 c2 37 1
p94 c4 17 1
p95 c4 35 1
p96 c1 70 1
p97 c1 11 1
p98 c2 90 1
p99 c3 57 1
p100 c2 7 1
p101 c3 60 1
p102 c1 60 1
p103 c4 9 1
p104 c4 65 1
p105 c2 55 1
p106 c2 57 1
p107 c1 90 1
p108 c2 62 1
p109 c1 66 1
p110 c1 6 1
p111 c3 72 1
p112 c1 62 1
p113 c2 64 1
p114 c1 28 1
p115 c4 67 1
p116 c2 3 1
p117 c3 26 1
p118 c2 50 1
p119 c3 28 1
p120 c4 17 1
p121 c2 71 1
p122 c2 20 1
p123 c4 4 1
p124 c1 58 1
p125 c4 54 1
p126 c4 18 1
p127 c1 27 1
p128 c3 76 1
p129 c2 3 1
p130 c4 30 1
p131 c3 59 1
p132 c3 60 1
p133 c4 89 1
p134 c2 55 1
p135 c3 10 1
p136 c4 26 1
p137 c2 70 1
p138 c4 8 1
p139 c1 54 1
p140 c2 38 1
p141 c2 29 1
p142 c3 66 1
p143 c2 25 1
p144 c3 33 1
p145 c1 39 1
p146 c2 46 1
p147 c2 17 1
p148 c1 73 1
p149 c1 25 1
p150 c4 57 1
p151 c1 43 1
p152 c3 64 1
p153 c2 88 1
p154 c4 60 1
p155 c2 12 1
p156 c3 90 1
p157 c4 81 1
p158 c1 32 1
p159 c3 14 1
p160 c4 68 1
p161 c3 31 1
p162 c4 21 1
p163 c4 66 1
p164 c4 13 1
p165 c3 58 1
p166 c2 36 1
p167 c3 38 1
p168 c4 34 1
p169 c1 79 1
p170 c2 71 1
p171 c4 70 1
p172 c4 74 1
p173 c2 63 1
p174 c3 53 1
p175 c2 34 1
;

param FMAX := 1 ;
param FMIN := 0 ;
param TAD := 0 ;
param TLS := 1 ;
